% company_type = A;

% The minimum earnings to obtain.
budget = 8000;
minimum_earnings = 9000;
available_time_in_hours = 1760;
current_year = 2020;

% Co2 related constraints
previous_year_co2 = 400;
previous_year_energy_consumption = 240;

Products = {Box, Recicled_Box};

product_costs = [8, 9];
product_selling_prices = [15, 13];
co2_emissions = [0.1, 0.02];
product_times = [1,2];
% an already recicled material is less reciclable than a non recicled one
% optional parameter (default = [])
product_reciclable_compositions = [0.5, 0.4];
% times_to_produce = [];
% minimum_number_of_products_to_make = [];
% raw_materials_of_products = [];

% Maybe turn arrays in a big matrix
Machinery = {M1, M2, M3};
m_yearly_uses = [500, 600, 900];
m_energy_per_hours = [0.2, 0.2, 0.4];
m_co2_per_hours = [0.2, 0.01, 0.0005];
m_water_per_hours = [2, 2, 2];

m_prices = [200, 250, 600];
m_resell_prices = [100, 125, 300];
max_n_machinery = 5;

% m_linked_products = [|true, false|true, true|true,true|];
% Should be <= sum(m_yearly_uses)
starting_machinery = [2, 3, 0];
% max_hour_machine_usage = 5000;
machine_budget = 800;
